data/CVRPLIB/Vrp-Set-XML100/instances/XML100_2211_21.vrp
NAME : XML100_2211_21
COMMENT : Generated by Queiroga, Sadykov, Uchoa, and Vidal (2021)
TYPE : CVRP
DIMENSION : 101
EDGE_WEIGHT_TYPE : EUC_2D
CAPACITY : 3
NODE_COORD_SECTION
1    500  500 
2    537  623 
3    667  723 
4    569  97  
5    541  163 
6    659  618 
7    558  171 
8    864  680 
9    541  146 
10   712  755 
11   570  160 
12   834  592 
13   632  325 
14   512  166 
15   679  255 
16   347  549 
17   456  695 
18   597  301 
19   709  607 
20   642  508 
21   680  567 
22   483  321 
23   471  247 
24   589  560 
25   604  610 
26   516  695 
27   507  674 
28   672  667 
29   780  110 
30   614  794 
31   553  225 
32   947  797 
33   849  842 
34   565  641 
35   582  609 
36   625  191 
37   555  155 
38   674  677 
39   617  493 
40   654  660 
41   396  174 
42   560  635 
43   649  410 
44   551  748 
45   569  741 
46   583  89  
47   792  492 
48   664  682 
49   738  656 
50   555  677 
51   341  577 
52   572  572 
53   525  742 
54   482  173 
55   855  512 
56   599  250 
57   595  663 
58   610  218 
59   684  693 
60   564  780 
61   585  8   
62   565  610 
63   671  911 
64   589  211 
65   693  259 
66   629  557 
67   663  668 
68   536  528 
69   633  729 
70   543  186 
71   747  637 
72   661  647 
73   667  758 
74   677  734 
75   674  294 
76   588  577 
77   623  673 
78   617  779 
79   515  637 
80   510  332 
81   634  590 
82   507  487 
83   603  542 
84   485  182 
85   510  783 
86   632  722 
87   598  507 
88   578  648 
89   592  619 
90   558  685 
91   552  6   
92   560  184 
93   482  517 
94   792  702 
95   428  47  
96   776  600 
97   685  717 
98   503  252 
99   412  234 
100  530  40  
101  547  154 
DEMAND_SECTION
1    0   
2    1   
3    1   
4    1   
5    1   
6    1   
7    1   
8    1   
9    1   
10   1   
11   1   
12   1   
13   1   
14   1   
15   1   
16   1   
17   1   
18   1   
19   1   
20   1   
21   1   
22   1   
23   1   
24   1   
25   1   
26   1   
27   1   
28   1   
29   1   
30   1   
31   1   
32   1   
33   1   
34   1   
35   1   
36   1   
37   1   
38   1   
39   1   
40   1   
41   1   
42   1   
43   1   
44   1   
45   1   
46   1   
47   1   
48   1   
49   1   
50   1   
51   1   
52   1   
53   1   
54   1   
55   1   
56   1   
57   1   
58   1   
59   1   
60   1   
61   1   
62   1   
63   1   
64   1   
65   1   
66   1   
67   1   
68   1   
69   1   
70   1   
71   1   
72   1   
73   1   
74   1   
75   1   
76   1   
77   1   
78   1   
79   1   
80   1   
81   1   
82   1   
83   1   
84   1   
85   1   
86   1   
87   1   
88   1   
89   1   
90   1   
91   1   
92   1   
93   1   
94   1   
95   1   
96   1   
97   1   
98   1   
99   1   
100  1   
101  1   
DEPOT_SECTION
1
-1
EOF
